# Solution for model NOSWOT
# Objective value = -41
T121 0
T122 0
T123 0
T124 0
T125 1
T131 0
T132 0
T133 0
T134 0
T135 0
T141 0
T142 0
T143 0
T144 0
T145 0
T151 0
T152 0
T153 0
T154 0
T155 0
T231 0
T232 0
T233 0
T234 0
T235 0
T241 0
T242 0
T243 0
T244 0
T245 0
T251 0
T252 0
T253 0
T254 0
T255 0
T341 0
T342 0
T343 0
T344 0
T345 0
T351 0
T352 0
T353 0
T354 0
T355 0
T451 0
T452 0
T453 0
T454 0
T455 0
W11 1
X11 9
W12 1
X12 9
W13 1
X13 9
W14 1
X14 9
W15 0
X15 0
W21 0
X21 0
W22 0
X22 0
W23 0
X23 0
W24 0
X24 0
W25 1
X25 5
W31 0
X31 0
W32 0
X32 0
W33 0
X33 0
W34 0
X34 0
W35 0
X35 0
W41 0
X41 0
W42 0
X42 0
W43 0
X43 0
W44 0
X44 0
W45 0
X45 0
W51 0
X51 0
W52 0
X52 0
W53 0
X53 0
W54 0
X54 0
W55 0
X55 0
S11 0
S12 0
S13 0
S14 0
S15 0
S21 0
S22 0
S23 0
S24 0
S25 0
S31 0
S32 0
S33 0
S34 0
S35 0
S41 0
S42 0
S43 0
S44 0
S45 0
S51 0
S52 0
S53 0
S54 0
S55 0
V150 0
V148 0
Q246 0
